Traveling Salesman Problem/TSP_generados/Aleatorio1621103641_16.tsp
NAME: Aleatorio1621103641_16.tsp
COMMENT: Randomly generated scenario
TYPE: TSP
DIMENSION: 16
EDGE_WEIGHT_TYPE: ATT
NODE_COORD_SECTION
1 27.92 6.0
2 3.03 17.24
3 4.63 36.97
4 8.3 23.42
5 6.48 11.45
6 22.38 46.55
7 32.77 48.92
8 14.66 38.09
9 48.53 25.91
10 28.4 10.1
11 13.76 14.73
12 43.48 41.55
13 3.99 47.99
14 6.74 34.24
15 35.77 32.08
16 10.96 24.38
