Traveling Salesman Problem/TSP_generados/Aleatorio1621103641_16.opt.tour
NAME: Aleatorio1621103641_16.opt.tour
COMMENT: Optimal solution for Aleatorio1621103641_16 (173.29891742222785)
TYPE: TOUR
DIMENSION: 16
TOUR_SECTION
1 11 5 2 4 16 14 3 13 8 6 7 12 15 9 10
-1
EOF
